param N := 5;
param M := 33;
param y :=
    1 .844    7 .881   13 .685   19 .538   25 .457   31 .414
    2 .908    8 .85    14 .658   20 .522   26 .448   32 .411
    3 .932    9 .818   15 .628   21 .506   27 .438   33 .406
    4 .936   10 .784   16 .603   22 .49    28 .431
    5 .925   11 .751   17 .58    23 .478   29 .424
    6 .908   12 .718   18 .558   24 .467   30 .42
    ;

var x :=	# initial guess
	1   .5
	2  1.5
	3 -1
	4   .01
	5   .02
	;

